networks/zoo_82_1315/zoo_82_1315-lower.txt
Number of groups: 41
Flow 1: {1 8 0} {8 25 0} {25 33 0} {33 2 0} {2 43 0} 
Flow 2: {25 3 0} {3 44 0} 
Flow 3: {25 22 0} {22 6 0} {6 47 0} 
Flow 4: {1 7 0} {7 48 0} 
Flow 5: {8 49 0} 
Flow 6: {8 10 0} {10 51 0} 
Flow 7: {22 12 0} {12 53 0} 
Flow 8: {29 13 0} {13 54 0} 
Flow 8: {25 29 0} Flow 9: {22 14 0} {14 55 0} 
Flow 10: {8 30 0} {30 16 0} {16 57 0} 
Flow 11: {16 18 0} {18 59 0} 
Flow 12: {22 19 0} {19 60 0} 
Flow 13: {22 20 0} {20 61 0} 
Flow 14: {25 21 0} {21 62 0} 
Flow 15: {22 63 0} 
Flow 16: {25 66 0} 
Flow 17: {8 26 0} {26 67 0} 
Flow 18: {10 27 0} {27 68 0} 
Flow 19: {29 28 0} {28 69 0} 
Flow 20: {29 70 0} 
Flow 21: {30 71 0} 
Flow 22: {30 31 0} {31 72 0} 
Flow 23: {25 32 0} {32 73 0} 
Flow 24: {33 74 0} 
Flow 25: {22 38 0} {38 79 0} 
Flow 26: {33 25 0} {25 8 0} {8 1 0} {1 42 0} 
Flow 26: {2 33 0} Flow 27: {33 3 0} Flow 28: {2 4 0} {4 45 0} 
Flow 30: {8 7 0} Flow 32: {8 9 0} {9 50 0} 
Flow 34: {22 11 0} {11 52 0} 
Flow 38: {22 16 0} Flow 44: {22 23 0} {23 64 0} 
Flow 45: {22 24 0} {24 65 0} 
Flow 47: {25 26 0} Flow 55: {33 38 0} {38 34 0} {34 75 0} 
Flow 56: {38 37 0} {37 78 0} 
Flow 58: {38 39 0} {39 80 0} 
Flow 59: {22 40 0} {40 81 0} 
Flow 60: {3 25 0} Flow 61: {3 33 0} Flow 62: {33 4 0} Flow 72: {16 15 0} {15 56 0} 
Flow 74: {16 17 0} {17 58 0} 
Flow 92: {22 35 0} {35 76 0} 
Flow 93: {38 36 0} {36 77 0} 
Flow 98: {22 41 0} {41 82 0} 
Flow 99: {4 33 0} Flow 117: {5 8 0} Flow 120: {6 22 0} {22 25 0} Flow 130: {14 13 0} Flow 144: {16 30 0} {30 27 0} Flow 145: {22 29 0} Flow 149: {22 32 0} Flow 158: {7 1 0} Flow 159: {7 8 0} Flow 175: {30 24 0} Flow 226: {9 8 0} Flow 257: {10 8 0} Flow 267: {11 22 0} Flow 305: {12 22 0} Flow 343: {13 29 0} {29 25 0} Flow 347: {8 5 0} {5 46 0} 
Flow 348: {29 22 0} Flow 355: {13 14 0} Flow 362: {29 21 0} Flow 368: {29 30 0} Flow 369: {13 28 0} Flow 383: {14 22 0} Flow 407: {15 16 0} {30 8 0} Flow 408: {16 22 0} Flow 487: {17 16 0} Flow 527: {18 16 0} Flow 567: {19 22 0} Flow 605: {20 22 0} Flow 623: {21 25 0} Flow 634: {21 29 0} Flow 697: {23 22 0} Flow 715: {24 30 0} Flow 716: {24 22 0} Flow 789: {26 8 0} Flow 790: {26 25 0} Flow 829: {27 10 0} Flow 832: {27 30 0} Flow 839: {30 29 0} Flow 860: {28 29 0} Flow 861: {28 13 0} Flow 947: {31 30 0} Flow 985: {32 25 0} Flow 990: {32 22 0} Flow 1063: {34 38 0} {38 22 0} Flow 1064: {38 33 0} Flow 1089: {35 22 0} Flow 1107: {36 38 0} Flow 1136: {36 37 0} Flow 1139: {37 38 0} Flow 1212: {39 38 0} Flow 1242: {39 34 0} Flow 1246: {40 22 0} Flow 1279: {41 22 0} Flow 1315: {41 40 0} Time taken running everything: 1 seconds
