networks/zoo_82_1315/zoo_82_1315-lower.sol
<?xml version = "1.0" encoding="UTF-8" standalone="yes"?>
<CPLEXSolution version="1.2">
 <header
   problemName="networks/zoo_82_1315/zoo_82_1315-lower.lp"
   solutionName="incumbent"
   solutionIndex="-1"
   objectiveValue="41"
   solutionTypeValue="3"
   solutionTypeString="primal"
   solutionStatusValue="101"
   solutionStatusString="integer optimal solution"
   solutionMethodString="mip"
   primalFeasible="1"
   dualFeasible="1"
   MIPNodes="0"
   MIPIterations="0"
   writeLevel="3"/>
 <quality
   epInt="1.0000000000000001e-05"
   epRHS="9.9999999999999995e-07"
   maxIntInfeas="0"
   maxPrimalInfeas="0"
   maxX="1"
   maxSlack="1"/>
 <variables>
  <variable name="Y(1,2)" index="1" value="1"/>
  <variable name="Y(2,3)" index="84" value="1"/>
  <variable name="Y(3,6)" index="169" value="1"/>
  <variable name="Y(4,7)" index="252" value="1"/>
  <variable name="Y(5,8)" index="335" value="1"/>
  <variable name="Y(6,10)" index="419" value="1"/>
  <variable name="Y(7,12)" index="503" value="1"/>
  <variable name="Y(8,13)" index="586" value="1"/>
  <variable name="Y(9,14)" index="669" value="1"/>
  <variable name="Y(10,16)" index="753" value="1"/>
  <variable name="Y(11,18)" index="837" value="1"/>
  <variable name="Y(12,19)" index="920" value="1"/>
  <variable name="Y(13,20)" index="1003" value="1"/>
  <variable name="Y(14,21)" index="1086" value="1"/>
  <variable name="Y(15,22)" index="1169" value="1"/>
  <variable name="Y(16,25)" index="1254" value="1"/>
  <variable name="Y(17,26)" index="1337" value="1"/>
  <variable name="Y(18,27)" index="1420" value="1"/>
  <variable name="Y(19,28)" index="1503" value="1"/>
  <variable name="Y(20,29)" index="1586" value="1"/>
  <variable name="Y(21,30)" index="1669" value="1"/>
  <variable name="Y(22,31)" index="1752" value="1"/>
  <variable name="Y(23,32)" index="1835" value="1"/>
  <variable name="Y(24,33)" index="1918" value="1"/>
  <variable name="Y(25,38)" index="2005" value="1"/>
  <variable name="Y(26,1)" index="2050" value="1"/>
  <variable name="Y(28,4)" index="2217" value="1"/>
  <variable name="Y(32,9)" index="2550" value="1"/>
  <variable name="Y(34,11)" index="2716" value="1"/>
  <variable name="Y(44,23)" index="3548" value="1"/>
  <variable name="Y(45,24)" index="3631" value="1"/>
  <variable name="Y(55,34)" index="4461" value="1"/>
  <variable name="Y(56,37)" index="4546" value="1"/>
  <variable name="Y(58,39)" index="4712" value="1"/>
  <variable name="Y(59,40)" index="4795" value="1"/>
  <variable name="Y(72,15)" index="5836" value="1"/>
  <variable name="Y(74,17)" index="6002" value="1"/>
  <variable name="Y(92,35)" index="7496" value="1"/>
  <variable name="Y(93,36)" index="7579" value="1"/>
  <variable name="Y(98,41)" index="7994" value="1"/>
  <variable name="Y(347,5)" index="28376" value="1"/>
  <variable name="X(1,7,4)" index="107833" value="1"/>
  <variable name="X(1,8,1)" index="109145" value="1"/>
  <variable name="X(1,42,26)" index="110485" value="1"/>
  <variable name="X(2,4,28)" index="111802" value="1"/>
  <variable name="X(2,33,26)" index="113115" value="1"/>
  <variable name="X(2,43,1)" index="114405" value="1"/>
  <variable name="X(3,25,60)" index="115779" value="1"/>
  <variable name="X(3,33,61)" index="117095" value="1"/>
  <variable name="X(3,44,2)" index="118351" value="1"/>
  <variable name="X(4,33,99)" index="119763" value="1"/>
  <variable name="X(4,45,28)" index="121007" value="1"/>
  <variable name="X(5,8,117)" index="122411" value="1"/>
  <variable name="X(5,46,347)" index="123956" value="1"/>
  <variable name="X(6,22,120)" index="125044" value="1"/>
  <variable name="X(6,47,3)" index="126242" value="1"/>
  <variable name="X(7,1,158)" index="127712" value="1"/>
  <variable name="X(7,8,159)" index="129028" value="1"/>
  <variable name="X(7,48,4)" index="130188" value="1"/>
  <variable name="X(8,1,26)" index="131525" value="1"/>
  <variable name="X(8,5,347)" index="133161" value="1"/>
  <variable name="X(8,7,30)" index="134159" value="1"/>
  <variable name="X(8,9,32)" index="135476" value="1"/>
  <variable name="X(8,10,6)" index="136765" value="1"/>
  <variable name="X(8,25,1)" index="138075" value="1"/>
  <variable name="X(8,26,17)" index="139406" value="1"/>
  <variable name="X(8,30,10)" index="140714" value="1"/>
  <variable name="X(8,49,5)" index="142024" value="1"/>
  <variable name="X(9,8,226)" index="143560" value="1"/>
  <variable name="X(9,50,32)" index="144681" value="1"/>
  <variable name="X(10,8,257)" index="146221" value="1"/>
  <variable name="X(10,27,18)" index="147297" value="1"/>
  <variable name="X(10,51,6)" index="148600" value="1"/>
  <variable name="X(11,22,267)" index="150176" value="1"/>
  <variable name="X(11,52,34)" index="151258" value="1"/>
  <variable name="X(12,22,305)" index="152844" value="1"/>
  <variable name="X(12,53,7)" index="153861" value="1"/>
  <variable name="X(13,14,355)" index="155524" value="1"/>
  <variable name="X(13,28,369)" index="156853" value="1"/>
  <variable name="X(13,29,343)" index="158142" value="1"/>
  <variable name="X(13,54,8)" index="159122" value="1"/>
  <variable name="X(14,13,130)" index="160559" value="1"/>
  <variable name="X(14,22,383)" index="162127" value="1"/>
  <variable name="X(14,55,9)" index="163068" value="1"/>
  <variable name="X(15,16,407)" index="164781" value="1"/>
  <variable name="X(15,56,72)" index="165761" value="1"/>
  <variable name="X(16,15,72)" index="167076" value="1"/>
  <variable name="X(16,17,74)" index="168393" value="1"/>
  <variable name="X(16,18,11)" index="169645" value="1"/>
  <variable name="X(16,22,408)" index="171357" value="1"/>
  <variable name="X(16,30,144)" index="172408" value="1"/>
  <variable name="X(16,57,10)" index="173589" value="1"/>
  <variable name="X(17,16,487)" index="175381" value="1"/>
  <variable name="X(17,58,74)" index="176283" value="1"/>
  <variable name="X(18,16,527)" index="178051" value="1"/>
  <variable name="X(18,59,11)" index="178850" value="1"/>
  <variable name="X(19,22,567)" index="180721" value="1"/>
  <variable name="X(19,60,12)" index="181481" value="1"/>
  <variable name="X(20,22,605)" index="183389" value="1"/>
  <variable name="X(20,61,13)" index="184112" value="1"/>
  <variable name="X(21,25,623)" index="186037" value="1"/>
  <variable name="X(21,29,634)" index="187363" value="1"/>
  <variable name="X(21,62,14)" index="188058" value="1"/>
  <variable name="X(22,6,3)" index="189362" value="1"/>
  <variable name="X(22,11,34)" index="190708" value="1"/>
  <variable name="X(22,12,7)" index="191996" value="1"/>
  <variable name="X(22,14,9)" index="193313" value="1"/>
  <variable name="X(22,16,38)" index="194657" value="1"/>
  <variable name="X(22,19,12)" index="195946" value="1"/>
  <variable name="X(22,20,13)" index="197262" value="1"/>
  <variable name="X(22,23,44)" index="198608" value="1"/>
  <variable name="X(22,24,45)" index="199924" value="1"/>
  <variable name="X(22,25,120)" index="201314" value="1"/>
  <variable name="X(22,29,145)" index="202654" value="1"/>
  <variable name="X(22,32,149)" index="203973" value="1"/>
  <variable name="X(22,35,92)" index="205231" value="1"/>
  <variable name="X(22,38,25)" index="206479" value="1"/>
  <variable name="X(22,40,59)" index="207828" value="1"/>
  <variable name="X(22,41,98)" index="209182" value="1"/>
  <variable name="X(22,63,15)" index="210414" value="1"/>
  <variable name="X(23,22,697)" index="212411" value="1"/>
  <variable name="X(23,64,44)" index="213073" value="1"/>
  <variable name="X(24,22,716)" index="215060" value="1"/>
  <variable name="X(24,30,715)" index="216374" value="1"/>
  <variable name="X(24,65,45)" index="217019" value="1"/>
  <variable name="X(25,3,2)" index="218291" value="1"/>
  <variable name="X(25,8,26)" index="219630" value="1"/>
  <variable name="X(25,21,14)" index="220933" value="1"/>
  <variable name="X(25,22,3)" index="222237" value="1"/>
  <variable name="X(25,26,47)" index="223596" value="1"/>
  <variable name="X(25,29,8)" index="224872" value="1"/>
  <variable name="X(25,32,23)" index="226202" value="1"/>
  <variable name="X(25,33,1)" index="227495" value="1"/>
  <variable name="X(25,66,16)" index="228825" value="1"/>
  <variable name="X(26,8,789)" index="230913" value="1"/>
  <variable name="X(26,25,790)" index="232229" value="1"/>
  <variable name="X(26,67,17)" index="232771" value="1"/>
  <variable name="X(27,10,829)" index="234898" value="1"/>
  <variable name="X(27,30,832)" index="236216" value="1"/>
  <variable name="X(27,68,18)" index="236717" value="1"/>
  <variable name="X(28,13,861)" index="238875" value="1"/>
  <variable name="X(28,29,860)" index="240189" value="1"/>
  <variable name="X(28,69,19)" index="240663" value="1"/>
  <variable name="X(29,13,8)" index="241967" value="1"/>
  <variable name="X(29,21,362)" index="243636" value="1"/>
  <variable name="X(29,22,348)" index="244937" value="1"/>
  <variable name="X(29,25,343)" index="246247" value="1"/>
  <variable name="X(29,28,19)" index="247238" value="1"/>
  <variable name="X(29,30,368)" index="248902" value="1"/>
  <variable name="X(29,70,20)" index="249869" value="1"/>
  <variable name="X(30,8,407)" index="251571" value="1"/>
  <variable name="X(30,16,10)" index="252489" value="1"/>
  <variable name="X(30,24,175)" index="253969" value="1"/>
  <variable name="X(30,27,144)" index="255253" value="1"/>
  <variable name="X(30,29,839)" index="257263" value="1"/>
  <variable name="X(30,31,22)" index="257761" value="1"/>
  <variable name="X(30,71,21)" index="259075" value="1"/>
  <variable name="X(31,30,947)" index="261316" value="1"/>
  <variable name="X(31,72,22)" index="261706" value="1"/>
  <variable name="X(32,22,990)" index="263989" value="1"/>
  <variable name="X(32,25,985)" index="265299" value="1"/>
  <variable name="X(32,73,23)" index="265652" value="1"/>
  <variable name="X(33,2,1)" index="266945" value="1"/>
  <variable name="X(33,3,27)" index="268286" value="1"/>
  <variable name="X(33,4,62)" index="269636" value="1"/>
  <variable name="X(33,25,26)" index="270915" value="1"/>
  <variable name="X(33,38,55)" index="272259" value="1"/>
  <variable name="X(33,74,24)" index="273543" value="1"/>
  <variable name="X(34,38,1063)" index="275897" value="1"/>
  <variable name="X(34,75,55)" index="276204" value="1"/>
  <variable name="X(35,22,1089)" index="278553" value="1"/>
  <variable name="X(35,76,92)" index="278871" value="1"/>
  <variable name="X(36,37,1136)" index="281230" value="1"/>
  <variable name="X(36,38,1107)" index="282516" value="1"/>
  <variable name="X(36,77,93)" index="282817" value="1"/>
  <variable name="X(37,38,1139)" index="285178" value="1"/>
  <variable name="X(37,78,56)" index="285410" value="1"/>
  <variable name="X(38,22,1063)" index="287732" value="1"/>
  <variable name="X(38,33,1064)" index="289048" value="1"/>
  <variable name="X(38,34,55)" index="289354" value="1"/>
  <variable name="X(38,36,93)" index="290707" value="1"/>
  <variable name="X(38,37,56)" index="291985" value="1"/>
  <variable name="X(38,39,58)" index="293302" value="1"/>
  <variable name="X(38,79,25)" index="294584" value="1"/>
  <variable name="X(39,34,1242)" index="297116" value="1"/>
  <variable name="X(39,38,1212)" index="298401" value="1"/>
  <variable name="X(39,80,58)" index="298562" value="1"/>
  <variable name="X(40,22,1246)" index="301065" value="1"/>
  <variable name="X(40,81,59)" index="301193" value="1"/>
  <variable name="X(41,22,1279)" index="303728" value="1"/>
  <variable name="X(41,40,1315)" index="305079" value="1"/>
  <variable name="X(41,82,98)" index="305177" value="1"/>
 </variables>
</CPLEXSolution>
